423443
63,79,59,66,28,58,87,44,27,1,76,10,80,71,104,49,94,91,75,77,102,26,24,43,85,69,22,45,32,105,3,70,67,48,47,4,103,99,57,83,93,12,35,2,84,96,15,31,8,19,53,72,14,9,95,41,25,50,54,33,61,51,36,82,37,86,20,52,98,100,39,60,78,7,62,106,6,5,55,30,97,18,16,92,89,13,65,56,81,74,73,101,38,11,40,90,46,68,34,23,17,21,29,42,64,88